20170519 100 0 0 0
20160523 100 0 0 0
20150616 100 0 0 0
20140527 100 10000 0 0
20130918 0 5000 0 0
20130510 100 0 0 0
20120509 100 0 0 0
20110531 50 2000 0 0
20100625 100 5000 0 0
20090701 50 2000 0 0
